40
    73     4    28    92    28    67    40    91    29    63    42    32    57    60    67    43    22    75    24    60    61    82     3    18    39     5    71    56    50    24    72    18    14    70    29    49    83    28    45    98
     4     5     7    10     5     3     9     3     3     8     6     4     8     1     4     3     9    10     2     1     2     5     2     8     3     6    10     8     5     7     4     3     1     8     8     9    10     4     8     1
   422   192   488  1319  1672   163   137   427  1141   674  1429  1364   676   587   993   839   363   417   179  1366   263     0  1537   691  1188   241   511  1292   697     0  1032  1714  1521   666  1478   335     0  1297   710    83
